n = 36;
lu = [|-437, -233
      |-1190, 282
      |-498, -393
      |324, 1008
      |-1275, -253
      |-566, 162
      |-1185, -92
      |-995, 204
      |-1261, -854
      |128, 440
      |-899, 433
      |308, 806
      |-69, 1081
      |-1024, -203
      |468, 588
      |-242, 1070
      |17, 1019
      |-1294, -1110
      |-526, 1242
      |674, 1243
      |264, 1238
      |-139, -13
      |141, 291
      |-740, 665
      |472, 877
      |-1007, -590
      |-115, -77
      |-890, -332
      |331, 639
      |-935, 805
      |-1158, 413
      |-1229, 417
      |-1279, 1184
      |1064, 1122
      |-778, 254
      |979, 1257|];
